c *********************************
c * Circuit generated by BenCGen
c *
c * Parity_24
c *
c * Ports with 1 gate(s): 1
c * Ports with 2 gate(s): 24
c * Total gates: 25
c *********************************
p cnf 49 97
1 27 0
-1 -27 0
1 -26 0
27 -26 0
-1 -27 26 0
1 2 -28 0
-1 2 28 0
1 -2 28 0
-1 -2 -28 0
3 4 -29 0
-3 4 29 0
3 -4 29 0
-3 -4 -29 0
5 6 -30 0
-5 6 30 0
5 -6 30 0
-5 -6 -30 0
7 8 -31 0
-7 8 31 0
7 -8 31 0
-7 -8 -31 0
9 10 -32 0
-9 10 32 0
9 -10 32 0
-9 -10 -32 0
11 12 -33 0
-11 12 33 0
11 -12 33 0
-11 -12 -33 0
13 14 -34 0
-13 14 34 0
13 -14 34 0
-13 -14 -34 0
15 16 -35 0
-15 16 35 0
15 -16 35 0
-15 -16 -35 0
17 18 -36 0
-17 18 36 0
17 -18 36 0
-17 -18 -36 0
19 20 -37 0
-19 20 37 0
19 -20 37 0
-19 -20 -37 0
21 22 -38 0
-21 22 38 0
21 -22 38 0
-21 -22 -38 0
23 24 -39 0
-23 24 39 0
23 -24 39 0
-23 -24 -39 0
28 29 -40 0
-28 29 40 0
28 -29 40 0
-28 -29 -40 0
30 31 -41 0
-30 31 41 0
30 -31 41 0
-30 -31 -41 0
32 33 -42 0
-32 33 42 0
32 -33 42 0
-32 -33 -42 0
34 35 -43 0
-34 35 43 0
34 -35 43 0
-34 -35 -43 0
36 37 -44 0
-36 37 44 0
36 -37 44 0
-36 -37 -44 0
38 39 -45 0
-38 39 45 0
38 -39 45 0
-38 -39 -45 0
40 41 -46 0
-40 41 46 0
40 -41 46 0
-40 -41 -46 0
42 43 -47 0
-42 43 47 0
42 -43 47 0
-42 -43 -47 0
44 45 -48 0
-44 45 48 0
44 -45 48 0
-44 -45 -48 0
46 47 -49 0
-46 47 49 0
46 -47 49 0
-46 -47 -49 0
49 48 -25 0
-49 48 25 0
49 -48 25 0
-49 -48 -25 0
